SCIP version 5.0.0 [precision: 8 byte] [memory: block] [mode: optimized] [LP solver: NONE] [GitHash: 3bbd232]
Copyright (C) 2002-2017 Konrad-Zuse-Zentrum fuer Informationstechnik Berlin (ZIB)

External codes: 
  Readline EditLine w  GNU library for command line editing (gnu.org/s/readline)
  CppAD 20160000.1     Algorithmic Differentiation of C++ algorithms developed by B. Bell (www.coin-or.org/CppAD)
  ZLIB 1.2.5           General purpose compression library by J. Gailly and M. Adler (zlib.net)
  GMP 6.1.2            GNU Multiple Precision Arithmetic Library developed by T. Granlund (gmplib.org)

user parameter file <scip.set> not found - using default parameters

read problem <../../Split_data/output/parkin/4/1_sample_parkin.logreg>
============

File name	:	../../Split_data/output/parkin/4/1_sample_parkin.logreg
Problem name 	:	1_sample_parkin
Number of data	:	156
Number of var	:	22
The given data has linear independence

[dim=1] time: 0.003405
[dim=2] time: 0.008927
[dim=3] time: 0.011613
[dim=4] time: 0.014037
[dim=5] time: 0.016016
[dim=6] time: 0.018031
[dim=7] time: 0.019837
[dim=8] Time of forward = 0.021788sec.
AIC: 94.4253
k: 7

[dim=22] time: 0.059072
[dim=21] time: 0.115974
[dim=20] time: 0.231261
[dim=19] time: 0.236536
[dim=18] time: 0.241112
[dim=17] time: 0.247362
[dim=16] time: 0.249491
[dim=15] time: 0.252597
[dim=14] time: 0.25511
[dim=13] time: 0.257457
[dim=12] time: 0.259634
[dim=11] time: 0.26179
[dim=10] time: 0.2637
[dim=9] time: 0.265366
[dim=8] Time of backward = 0.266901sec.
AIC: 90.4974
k: 9
